100
150
100
99
99
98
98
97
95
95
95
94
94
94
94
93
93
92
91
90
90
90
90
89
89
88
86
85
85
84
83
83
82
81
81
80
79
79
77
76
76
73
72
71
71
71
69
69
68
67
67
63
61
61
61
60
60
59
58
57
57
57
57
56
56
56
56
56
55
53
53
53
51
51
49
48
48
47
47
47
47
46
46
45
45
44
44
43
43
42
42
39
38
38
37
36
35
33
32
31
30
30
